(set-info :smt-lib-version 2.6)
(set-logic QF_AX)
(set-info :source |
Benchmarks used in the followin paper:
Big proof engines as little proof engines: new results on rewrite-based satisfiability procedure
Alessandro Armando, Maria Paola Bonacina, Silvio Ranise, Stephan Schulz. 
PDPAR'05
http://www.ai.dist.unige.it/pdpar05/


|)
(set-info :category "crafted")
(set-info :status unsat)
(declare-sort Index 0)
(declare-sort Element 0)
(declare-fun a_34 () (Array Index Element))
(declare-fun a_36 () (Array Index Element))
(declare-fun a_38 () (Array Index Element))
(declare-fun a_40 () (Array Index Element))
(declare-fun a_41 () (Array Index Element))
(declare-fun a_42 () (Array Index Element))
(declare-fun a_44 () (Array Index Element))
(declare-fun a_46 () (Array Index Element))
(declare-fun e_33 () Element)
(declare-fun e_35 () Element)
(declare-fun e_37 () Element)
(declare-fun e_39 () Element)
(declare-fun e_43 () Element)
(declare-fun e_45 () Element)
(declare-fun a1 () (Array Index Element))
(declare-fun i0 () Index)
(declare-fun i1 () Index)
(assert (= a_34 (store a1 i0 e_33)))
(assert (= a_36 (store a_34 i1 e_35)))
(assert (= a_38 (store a_36 i1 e_37)))
(assert (= a_40 (store a_38 i0 e_39)))
(assert (= a_41 (store a1 i1 e_35)))
(assert (= a_42 (store a_41 i0 e_33)))
(assert (= a_44 (store a_42 i0 e_43)))
(assert (= a_46 (store a_44 i1 e_45)))
(assert (= e_33 (select a1 i1)))
(assert (= e_35 (select a1 i0)))
(assert (= e_37 (select a_36 i0)))
(assert (= e_39 (select a_36 i1)))
(assert (= e_43 (select a_42 i1)))
(assert (= e_45 (select a_42 i0)))
(assert (not (= a_40 a_46)))
(check-sat)
(exit)
